solution status: optimal solution found
objective value:                         -11082.74096
t_x18                                               1 	(obj:-213.053)
t_x109                                              1 	(obj:-1225.5988)
t_x118                                              1 	(obj:-326.6)
t_x168                                              1 	(obj:-130.966)
t_x184                                              1 	(obj:-582.784)
t_x272                                              1 	(obj:-239.034)
t_x300                                              1 	(obj:-360.733)
t_x303                                              1 	(obj:-55.8187)
t_x310                                              1 	(obj:-524.902)
t_x334                                              1 	(obj:-219.474)
t_x418                                              1 	(obj:-1191.8221)
t_x464                                              1 	(obj:-678.017)
t_x480                              0.999999999999999 	(obj:-728.59486)
t_x488                                              1 	(obj:-172.37)
t_x498                                              1 	(obj:-1107.5974)
t_x511                                              1 	(obj:-243.065)
t_x537                                              1 	(obj:-287.764)
t_x615                                              1 	(obj:-222.411)
t_x657                                              1 	(obj:-954.939)
t_x674                                              1 	(obj:-404.451)
t_x761                                              1 	(obj:-645.226)
t_x787                                              1 	(obj:-151.801)
t_x940                                              1 	(obj:-223.941)
t_x961                                              1 	(obj:-88.5071)
t_x977                                              1 	(obj:-103.271)
